words_hard_train/7618.qaiger
aag 99 20 0 1 79
2
4
8
12
16
20
28
32
34
38
42
46
50
60
70
112
124
130
170
174
199
6 2 4
10 6 8
14 10 12
18 14 16
22 19 21
24 18 20
26 23 25
30 27 29
36 33 35
40 36 39
44 40 43
48 44 47
52 49 50
54 48 51
56 53 55
58 31 56
62 25 61
64 24 60
66 63 65
68 67 29
72 55 70
74 54 71
76 73 75
78 69 76
80 59 79
82 11 13
84 83 15
86 85 29
88 41 42
90 89 45
92 87 90
94 15 17
96 95 19
98 97 29
100 45 46
102 101 49
104 99 102
106 93 105
108 7 9
110 109 11
114 111 113
116 114 34
118 3 5
120 119 7
122 121 38
126 122 125
128 2 32
132 128 131
134 125 4
136 135 39
138 132 137
140 127 139
142 115 35
144 141 143
146 117 145
148 86 91
150 149 41
152 146 150
154 106 153
156 30 57
158 155 157
160 98 103
162 158 161
164 80 163
166 68 77
168 165 167
172 168 170
176 64 175
178 177 29
180 65 174
182 178 181
184 182 74
186 172 185
188 183 75
190 189 173
192 187 191
194 169 171
196 194 185
198 193 197
i0 1 x2[0]
i1 1 x2[1]
i2 1 x2[2]
i3 1 x2[3]
i4 1 x2[4]
i5 1 x2[5]
i6 1 x1[7]
i7 2 y1[0]
i8 2 y1[2]
i9 2 y1[1]
i10 2 y1[3]
i11 2 y1[4]
i12 2 y1[5]
i13 1 x2[6]
i14 2 y1[6]
i15 1 x1[6]
i16 1 x1[5]
i17 1 x1[4]
i18 2 y1[7]
i19 1 x2[7]
o0 bv[0]
c
simplified
  >
    2 y1
    or
      add
        1
        1 x2
      >> 4
        1 x1
