words_hard_train/7618.qaiger.qdimacs
p cnf 99 238
a 1 2 65 4 6 8 10 14 87 56 62 30 0
e 3 5 7 9 11 12 13 15 16 17 18 19 20 21 22 23 24 25 26 27 28 29 31 32 33 34 35 36 37 38 39 40 41 42 43 44 45 46 47 48 49 50 51 52 53 54 55 57 58 59 60 61 63 64 66 67 68 69 70 71 72 73 74 75 76 77 78 79 80 81 82 83 84 85 86 88 89 90 91 92 93 94 95 96 97 98 99 0
-1 -2 3 0
1 -3 0
2 -3 0
-3 -4 5 0
3 -5 0
4 -5 0
-5 -6 7 0
5 -7 0
6 -7 0
-7 -8 9 0
7 -9 0
8 -9 0
9 10 11 0
-9 -11 0
-10 -11 0
-9 -10 12 0
9 -12 0
10 -12 0
11 12 13 0
-11 -13 0
-12 -13 0
13 14 15 0
-13 -15 0
-14 -15 0
16 17 18 0
-16 -18 0
-17 -18 0
-18 19 20 0
18 -20 0
-19 -20 0
-20 21 22 0
20 -22 0
-21 -22 0
-22 23 24 0
22 -24 0
-23 -24 0
24 -25 26 0
-24 -26 0
25 -26 0
-24 25 27 0
24 -27 0
-25 -27 0
26 27 28 0
-26 -28 0
-27 -28 0
15 -28 29 0
-15 -29 0
28 -29 0
12 30 31 0
-12 -31 0
-30 -31 0
-12 -30 32 0
12 -32 0
30 -32 0
31 32 33 0
-31 -33 0
-32 -33 0
33 14 34 0
-33 -34 0
-14 -34 0
27 -35 36 0
-27 -36 0
35 -36 0
-27 35 37 0
27 -37 0
-35 -37 0
36 37 38 0
-36 -38 0
-37 -38 0
34 -38 39 0
-34 -39 0
38 -39 0
29 39 40 0
-29 -40 0
-39 -40 0
5 6 41 0
-5 -41 0
-6 -41 0
41 7 42 0
-41 -42 0
-7 -42 0
42 14 43 0
-42 -43 0
-14 -43 0
20 -21 44 0
-20 -44 0
21 -44 0
44 22 45 0
-44 -45 0
-22 -45 0
43 -45 46 0
-43 -46 0
45 -46 0
7 8 47 0
-7 -47 0
-8 -47 0
47 9 48 0
-47 -48 0
-9 -48 0
48 14 49 0
-48 -49 0
-14 -49 0
22 -23 50 0
-22 -50 0
23 -50 0
50 24 51 0
-50 -51 0
-24 -51 0
49 -51 52 0
-49 -52 0
51 -52 0
46 52 53 0
-46 -53 0
-52 -53 0
3 4 54 0
-3 -54 0
-4 -54 0
54 5 55 0
-54 -55 0
-5 -55 0
55 56 57 0
-55 -57 0
-56 -57 0
-57 -17 58 0
57 -58 0
17 -58 0
1 2 59 0
-1 -59 0
-2 -59 0
59 3 60 0
-59 -60 0
-3 -60 0
60 -19 61 0
-60 -61 0
19 -61 0
-61 62 63 0
61 -63 0
-62 -63 0
-1 -16 64 0
1 -64 0
16 -64 0
-64 65 66 0
64 -66 0
-65 -66 0
62 -2 67 0
-62 -67 0
2 -67 0
67 19 68 0
-67 -68 0
-19 -68 0
-66 68 69 0
66 -69 0
-68 -69 0
63 69 70 0
-63 -70 0
-69 -70 0
57 17 71 0
-57 -71 0
-17 -71 0
70 71 72 0
-70 -72 0
-71 -72 0
58 72 73 0
-58 -73 0
-72 -73 0
-43 45 74 0
43 -74 0
-45 -74 0
74 20 75 0
-74 -75 0
-20 -75 0
-73 -75 76 0
73 -76 0
75 -76 0
-53 76 77 0
53 -77 0
-76 -77 0
-15 28 78 0
15 -78 0
-28 -78 0
77 78 79 0
-77 -79 0
-78 -79 0
-49 51 80 0
49 -80 0
-51 -80 0
-79 80 81 0
79 -81 0
-80 -81 0
-40 81 82 0
40 -82 0
-81 -82 0
-34 38 83 0
34 -83 0
-38 -83 0
82 83 84 0
-82 -84 0
-83 -84 0
-84 -85 86 0
84 -86 0
85 -86 0
-32 87 88 0
32 -88 0
-87 -88 0
88 14 89 0
-88 -89 0
-14 -89 0
32 -87 90 0
-32 -90 0
87 -90 0
-89 90 91 0
89 -91 0
-90 -91 0
-91 -37 92 0
91 -92 0
37 -92 0
-86 92 93 0
86 -93 0
-92 -93 0
91 37 94 0
-91 -94 0
-37 -94 0
94 86 95 0
-94 -95 0
-86 -95 0
93 95 96 0
-93 -96 0
-95 -96 0
84 85 97 0
-84 -97 0
-85 -97 0
-97 92 98 0
97 -98 0
-92 -98 0
96 98 99 0
-96 -99 0
-98 -99 0
-99 0
